135265
94,3,78,96,60,91,79,43,102,74,24,1,87,44,66,59,10,27,28,58,76,89,93,12,92,23,80,57,83,34,9,106,8,97,55,29,30,5,52,65,31,98,13,88,69,81,42,19,99,68,50,26,14,47,61,103,4,15,75,32,7,18,49,37,39,84,53,63,35,100,51,82,72,45,25,86,46,77,6,40,56,20,16,64,90,17,21,22,62,2,33,73,48,85,36,71,54,95,67,41,11,104,38,105,101,70
